c read Graph
c width = 2
c time = 151 ms
c width = 2
c time = 3847 ms
s td 36 3 38
b 1 1 2 21
b 2 2 3 22
b 3 3 4 23
b 4 4 5 24
b 5 5 6 25
b 6 6 7 26
b 7 7 8 27
b 8 8 9 28
b 9 9 10 29
b 10 10 11 30
b 11 11 12 31
b 12 12 13 32
b 13 13 14 33
b 14 14 15 34
b 15 15 16 35
b 16 16 17 36
b 17 17 18 37
b 18 18 19 38
b 19 18 37 38
b 20 17 36 37
b 21 16 35 36
b 22 15 34 35
b 23 14 33 34
b 24 13 32 33
b 25 12 31 32
b 26 11 30 31
b 27 10 29 30
b 28 9 28 29
b 29 8 27 28
b 30 7 26 27
b 31 6 25 26
b 32 5 24 25
b 33 4 23 24
b 34 3 22 23
b 35 2 21 22
b 36 1 20 21
1 36
1 35
2 35
2 34
3 34
3 33
4 33
4 32
5 32
5 31
6 31
6 30
7 30
7 29
8 29
8 28
9 28
9 27
10 27
10 26
11 26
11 25
12 25
12 24
13 24
13 23
14 23
14 22
15 22
15 21
16 21
16 20
17 20
17 19
18 19
